NAME: mp14
TYPE: ATSP
DIMENSION: 14
BEST_KNOWN:
EDGE_WEIGHT_SECTION 
-1 21 4 16 87 36 14 2 23 60 67 50 67 37 
28 -1 63 38 6 87 23 88 5 3 22 38 55 84 
20 63 -1 51 13 43 77 4 83 11 48 89 68 80 
39 65 20 -1 62 37 28 10 84 48 44 47 79 40 
63 14 39 85 -1 80 8 1 80 76 42 99 59 87 
59 46 96 2 63 -1 46 48 48 40 55 28 100 9 
22 88 45 52 33 14 -1 37 80 44 77 21 90 20 
94 81 23 57 95 60 11 -1 79 10 27 36 84 93 
38 18 41 28 89 2 26 34 -1 76 33 79 23 6 
46 9 17 99 94 4 77 21 67 -1 9 37 91 91 
71 40 3 18 26 1 14 27 1 88 -1 25 67 96 
49 38 66 8 87 75 94 58 24 42 97 -1 17 65 
34 46 96 56 57 3 11 4 99 2 20 21 -1 18 
81 9 1 90 39 81 15 46 43 76 93 39 95 -1 
